Gurobi Optimizer version 9.1.2 build v9.1.2rc0 (linux64)
Thread count: 36 physical cores, 72 logical processors, using up to 32 threads
Optimize a model with 12 rows, 57 columns and 590 nonzeros
Model fingerprint: 0xf32eec78
Model has 47 quadratic constraints
Coefficient statistics:
  Matrix range     [2e-05, 3e+00]
  QMatrix range    [1e+00, 1e+00]
  QLMatrix range   [1e+00, 1e+00]
  Objective range  [8e-03, 7e-01]
  Bounds range     [1e+00, 1e+00]
  RHS range        [1e+00, 1e+00]
Presolve removed 9 rows and 0 columns

Continuous model is non-convex -- solving as a MIP.

Presolve removed 9 rows and 0 columns
Presolve time: 0.00s
Presolved: 189 rows, 57 columns, 443 nonzeros
Presolved model has 47 bilinear constraint(s)
Variable types: 57 continuous, 0 integer (0 binary)

Root relaxation: objective -1.743721e+00, 44 iterations, 0.00 seconds

    Nodes    |    Current Node    |     Objective Bounds      |     Work
 Expl Unexpl |  Obj  Depth IntInf | Incumbent    BestBd   Gap | It/Node Time

     0     0   -1.74372    0   38          -   -1.74372      -     -    0s
H    0     0                       0.6147548   -1.74372   384%     -    0s
     0     0   -1.64739    0    1    0.61475   -1.64739   368%     -    0s
H    0     0                      -1.6450460   -1.64739  0.14%     -    0s
     0     0     cutoff    0        -1.64505   -1.64505  0.00%     -    0s

Cutting planes:
  RLT: 25
  BQP: 3

Explored 1 nodes (76 simplex iterations) in 0.01 seconds
Thread count was 32 (of 72 available processors)

Solution count 2: -1.64505 0.614755 
No other solutions better than -1.64505

Optimal solution found (tolerance 1.00e-04)
Best objective -1.645045978473e+00, best bound -1.645045978473e+00, gap 0.0000%

User-callback calls 77, time in user-callback 0.00 sec
Gurobi Optimizer version 9.1.2 build v9.1.2rc0 (linux64)
Thread count: 36 physical cores, 72 logical processors, using up to 32 threads
Optimize a model with 24 rows, 120 columns and 2480 nonzeros
Model fingerprint: 0x8b697ad8
Model has 100 quadratic constraints
Coefficient statistics:
  Matrix range     [8e-06, 4e+00]
  QMatrix range    [1e+00, 1e+00]
  QLMatrix range   [1e+00, 1e+00]
  Objective range  [5e-03, 1e+00]
  Bounds range     [1e+00, 1e+00]
  RHS range        [1e+00, 1e+00]
Presolve removed 17 rows and 0 columns

Continuous model is non-convex -- solving as a MIP.

Presolve removed 17 rows and 0 columns
Presolve time: 0.00s
Presolved: 407 rows, 120 columns, 1232 nonzeros
Presolved model has 100 bilinear constraint(s)
Variable types: 120 continuous, 0 integer (0 binary)

Root relaxation: objective -8.224120e+00, 136 iterations, 0.00 seconds

    Nodes    |    Current Node    |     Objective Bounds      |     Work
 Expl Unexpl |  Obj  Depth IntInf | Incumbent    BestBd   Gap | It/Node Time

     0     0   -8.22412    0  100          -   -8.22412      -     -    0s
H    0     0                       1.2558221   -8.22412   755%     -    0s
     0     0   -5.63980    0  100    1.25582   -5.63980   549%     -    0s
H    0     0                       0.7023294   -5.63980   903%     -    0s
     0     0   -5.63271    0  100    0.70233   -5.63271   902%     -    0s
     0     0   -4.91927    0   90    0.70233   -4.91927   800%     -    0s
H    0     0                      -0.6813747   -4.91927   622%     -    0s
     0     0   -4.88367    0   90   -0.68137   -4.88367   617%     -    0s
     0     0   -4.75546    0   90   -0.68137   -4.75546   598%     -    0s
     0     0   -4.74552    0  100   -0.68137   -4.74552   596%     -    0s
     0     0   -4.71717    0   90   -0.68137   -4.71717   592%     -    0s
     0     0   -4.70997    0   90   -0.68137   -4.70997   591%     -    0s
     0     0   -4.69892    0  100   -0.68137   -4.69892   590%     -    0s
     0     0   -4.69861    0  100   -0.68137   -4.69861   590%     -    0s
     0     0   -4.69612    0   90   -0.68137   -4.69612   589%     -    0s
     0     0   -4.69477    0   90   -0.68137   -4.69477   589%     -    0s
     0     0   -4.69318    0  100   -0.68137   -4.69318   589%     -    0s
H    0     0                      -2.2196649   -4.69318   111%     -    0s
     0     2   -4.69318    0  100   -2.21966   -4.69318   111%     -    0s
* 1004   980              34      -2.4723271   -4.16755  68.6%  27.0    0s
* 1101  1156              41      -3.0933156   -4.16755  34.7%  25.6    0s
* 1102  1156              41      -3.0934166   -4.16755  34.7%  25.6    0s
* 1401  1252              33      -3.6436539   -4.12957  13.3%  23.5    0s
* 1402  1252              33      -3.6436561   -4.12957  13.3%  23.5    0s
* 1422  1252              22      -3.7141395   -4.12957  11.2%  23.4    0s
* 1575  1150              28      -3.7529504   -4.02640  7.29%  22.8    0s
* 1948   934              25      -3.7530911   -3.76771  0.39%  20.2    0s
* 1949   934              25      -3.7532061   -3.76771  0.39%  20.2    0s
* 1956   934              19      -3.7597618   -3.76621  0.17%  20.2    0s
* 1960   934              22      -3.7598636   -3.76621  0.17%  20.2    0s
* 1961   934              22      -3.7598663   -3.76621  0.17%  20.2    0s
* 2056   934              26      -3.7641754   -3.76451  0.01%  19.4    0s

Cutting planes:
  RLT: 76
  BQP: 15
  PSD: 22

Explored 2239 nodes (40999 simplex iterations) in 0.57 seconds
Thread count was 32 (of 72 available processors)

Solution count 10: -3.76418 -3.75987 -3.75976 ... -3.09342

Optimal solution found (tolerance 1.00e-04)
Best objective -3.764175416093e+00, best bound -3.764513996022e+00, gap 0.0090%

User-callback calls 4764, time in user-callback 0.00 sec



objective value: -3.7641754160928347
objective bound: -3.7645139960217517
x_opt: [0.0, 1.0, 1.0, 1.0, 1.0, 0.0, 0.0, 0.0, 0.27937876193575073, 1.0, 0.0, 0.2256332648585234, 1.0, 0.9990821451540247, 1.0, 2.5429433767639035e-6, 0.0, 0.0, 0.05252389261240362, 0.4954450221163182]
GUROBI solution time: 0.5712709426879883




